
******************************************************************************
This program contains Ipopt, a library for large-scale nonlinear optimization.
 Ipopt is released as open source code under the Eclipse Public License (EPL).
         For more information visit http://projects.coin-or.org/Ipopt

This version of Ipopt was compiled from source code available at
    https://github.com/IDAES/Ipopt as part of the Institute for the Design of
    Advanced Energy Systems Process Systems Engineering Framework (IDAES PSE
    Framework) Copyright (c) 2018-2019. See https://github.com/IDAES/idaes-pse.

This version of Ipopt was compiled using HSL, a collection of Fortran codes
    for large-scale scientific computation.  All technical papers, sales and
    publicity material resulting from use of the HSL codes within IPOPT must
    contain the following acknowledgement:
        HSL, a collection of Fortran codes for large-scale scientific
        computation. See http://www.hsl.rl.ac.uk.
******************************************************************************

This is Ipopt version 3.13.2, running with linear solver ma27.

Number of nonzeros in equality constraint Jacobian...:      808
Number of nonzeros in inequality constraint Jacobian.:        0
Number of nonzeros in Lagrangian Hessian.............:      702

Total number of variables............................:      351
                     variables with only lower bounds:      108
                variables with lower and upper bounds:      189
                     variables with only upper bounds:        0
Total number of equality constraints.................:      350
Total number of inequality constraints...............:        0
        inequality constraints with only lower bounds:        0
   inequality constraints with lower and upper bounds:        0
        inequality constraints with only upper bounds:        0

iter    objective    inf_pr   inf_du lg(mu)  ||d||  lg(rg) alpha_du alpha_pr  ls
   0  0.0000000e+00 4.54e-01 9.99e-16  -1.0 0.00e+00    -  0.00e+00 0.00e+00   0
   1  6.8981093e+00 1.97e+00 4.49e+04  -1.0 2.60e+05    -  5.57e-01 6.17e-01h  1
   2  7.7300280e+00 1.79e+00 4.10e+04  -1.0 1.27e+05    -  8.30e-01 7.69e-02h  1
   3  8.2996810e+00 1.69e+00 3.91e+04  -1.0 1.67e+05    -  8.35e-01 5.12e-02h  1
   4  2.5671277e+01 1.20e-01 1.39e+04  -1.0 1.60e+05    -  8.38e-01 9.90e-01h  1
   5  2.8063562e+01 5.26e-03 4.48e+02  -1.0 1.57e+04    -  8.78e-01 9.90e-01h  1
   6  2.8107755e+01 6.95e-05 5.83e+04  -1.0 2.83e+02    -  7.95e-01 9.90e-01h  1
   7  2.8123566e+01 1.46e-05 1.26e+07  -1.0 2.47e+02    -  5.66e-01 9.90e-01h  1
   8  2.8153829e+01 1.75e-06 1.02e+09  -1.0 4.85e+02    -  6.48e-01 9.90e-01H  1
   9  2.8154274e+01 1.75e-06 2.17e+11  -1.0 9.10e+02    -  7.39e-01 7.73e-03h  8
iter    objective    inf_pr   inf_du lg(mu)  ||d||  lg(rg) alpha_du alpha_pr  ls
  10  2.8154492e+01 1.75e-06 3.95e+11  -1.0 1.79e+03    -  5.95e-01 1.93e-03h 10
  11  2.8154629e+01 1.75e-06 5.57e+11  -1.0 2.23e+03    -  5.39e-01 9.67e-04h 11
  12  2.8154780e+01 1.75e-06 7.12e+11  -1.0 2.47e+03    -  5.15e-01 9.67e-04h 11
  13  2.8154938e+01 1.75e-06 8.63e+11  -1.0 2.58e+03    -  5.05e-01 9.67e-04h 11
  14  2.8155099e+01 1.75e-06 1.01e+12  -1.0 2.64e+03    -  5.00e-01 9.67e-04h 11
  15  2.8155262e+01 1.75e-06 1.16e+12  -1.0 2.66e+03    -  4.99e-01 9.67e-04h 11
  16  2.8155426e+01 1.75e-06 1.31e+12  -1.0 2.68e+03    -  4.98e-01 9.67e-04h 11
  17  2.8155591e+01 1.75e-06 1.46e+12  -1.0 2.68e+03    -  5.00e-01 9.67e-04h 11
  18  2.8155755e+01 1.75e-06 1.61e+12  -1.0 2.69e+03    -  5.00e-01 9.67e-04h 11
  19  2.8325188e+01 1.43e-03 1.32e+11  -1.0 2.68e+03    -  5.02e-01 9.90e-01w  1
iter    objective    inf_pr   inf_du lg(mu)  ||d||  lg(rg) alpha_du alpha_pr  ls
  20  2.8324968e+01 1.58e-05 3.02e+11  -1.0 1.59e+00    -  1.00e+00 9.90e-01w  1
In iteration 20, 27 Slacks too small, adjusting variable bounds
  21  2.8324963e+01 1.58e-07 3.04e+13  -1.0 4.98e-02    -  1.00e+00 9.90e-01h  1
  22  2.8324963e+01 1.05e-12 2.50e-01  -1.0 4.99e-04    -  1.00e+00 1.00e+00h  1
  23  2.8323204e+01 1.43e-07 3.22e+13  -9.0 3.95e+03    -  9.97e-01 6.95e-03f  8
  24  2.8322768e+01 1.51e-07 3.22e+13  -9.0 3.50e+03    -  9.98e-01 1.94e-03f 10
  25  2.8322550e+01 1.53e-07 3.22e+13  -9.0 3.48e+03    -  1.00e+00 9.76e-04f 11
  26  2.8322332e+01 1.55e-07 3.21e+13  -9.0 3.48e+03    -  1.00e+00 9.76e-04f 11
  27  2.8322224e+01 1.56e-07 3.21e+13  -9.0 3.47e+03    -  1.00e+00 4.88e-04f 12
  28  2.8102033e+01 2.81e-03 7.08e+09  -9.0 3.47e+03    -  1.00e+00 1.00e+00f  1
  29  2.8098818e+01 1.27e-07 4.24e-02  -9.0 4.58e+01    -  9.96e-01 1.00e+00h  1
iter    objective    inf_pr   inf_du lg(mu)  ||d||  lg(rg) alpha_du alpha_pr  ls
  30  2.8098818e+01 4.03e-12 1.16e-10  -9.0 1.44e-03    -  1.00e+00 1.00e+00h  1

Number of Iterations....: 30

                                   (scaled)                 (unscaled)
Objective...............:   2.8098817550784108e+01    2.8098817550784108e+01
Dual infeasibility......:   1.1641532182693481e-10    1.1641532182693481e-10
Constraint violation....:   4.0274450441302179e-12    4.0274450441302179e-12
Complementarity.........:   9.0909286830069234e-10    9.0909286830069234e-10
Overall NLP error.......:   5.5969477165630714e-12    9.0909286830069234e-10


Number of objective function evaluations             = 233
Number of objective gradient evaluations             = 31
Number of equality constraint evaluations            = 233
Number of inequality constraint evaluations          = 0
Number of equality constraint Jacobian evaluations   = 31
Number of inequality constraint Jacobian evaluations = 0
Number of Lagrangian Hessian evaluations             = 30
Total CPU secs in IPOPT (w/o function evaluations)   =      0.070
Total CPU secs in NLP function evaluations           =      1.579

EXIT: Optimal Solution Found.
